Maximize
 obj: 0 X1
Subject To
 c1:
  + 1 X74 + 1 X94 + 1 X25 + 1 X32 + 1 X61 + 1 X22 + 1 X100 + 1 X43
  <= 1
 c2:
  + 1 X69 + 1 X35 + 1 X31 + 1 X77 + 1 X87 + 1 X86 + 1 X90 + 1 X74
  <= 1
 c3:
  + 1 X97 + 1 X58 + 1 X21 + 1 X49 + 1 X11 + 1 X33 + 1 X90 + 1 X72
  + 1 X26 + 1 X94 + 1 X48 + 1 X22 + 1 X63 + 1 X71 + 1 X1 + 1 X18
  <= 1
 c4:
  + 1 X28 + 1 X13 + 1 X49 + 1 X69 + 1 X23 + 1 X6 + 1 X17 + 1 X73
  + 1 X24 + 1 X39
  <= 1
 c5:
  + 1 X97 + 1 X15 + 1 X67 + 1 X71 + 1 X27
  <= 1
 c6:
  + 1 X75 + 1 X20 + 1 X90 + 1 X26 + 1 X8 + 1 X83 + 1 X48 + 1 X9
  + 1 X21 + 1 X4 + 1 X74 + 1 X40 + 1 X42 + 1 X99 + 1 X58 + 1 X70
  + 1 X62 + 1 X36 + 1 X22
  <= 1
 c7:
  + 1 X79 + 1 X52 + 1 X7 + 1 X51 + 1 X10 + 1 X2 + 1 X93 + 1 X98
  + 1 X78 + 1 X28 + 1 X53 + 1 X18
  <= 1
 c8:
  + 1 X20 + 1 X96 + 1 X29 + 1 X77 + 1 X46 + 1 X73 + 1 X21 + 1 X61
  + 1 X87 + 1 X47 + 1 X33 + 1 X91 + 1 X38
  <= 1
 c9:
  + 1 X32 + 1 X36 + 1 X51 + 1 X64 + 1 X53 + 1 X47 + 1 X61 + 1 X68
  + 1 X89 + 1 X13 + 1 X17
  <= 1
 c10:
  + 1 X85 + 1 X94 + 1 X41 + 1 X59 + 1 X73 + 1 X71 + 1 X99 + 1 X12
  + 1 X46 + 1 X38 + 1 X30 + 1 X27 + 1 X87 + 1 X23 + 1 X53 + 1 X34
  + 1 X2 + 1 X83 + 1 X95 + 1 X36
  <= 1
 c11:
  + 1 X1 + 1 X95 + 1 X45 + 1 X62 + 1 X68 + 1 X37 + 1 X87 + 1 X47
  + 1 X66 + 1 X77 + 1 X52 + 1 X73 + 1 X65
  <= 1
 c12:
  + 1 X63 + 1 X13 + 1 X72
  <= 1
 c13:
  + 1 X42 + 1 X91 + 1 X71 + 1 X19 + 1 X69 + 1 X93 + 1 X54 + 1 X55
  + 1 X34 + 1 X100 + 1 X23 + 1 X72 + 1 X74 + 1 X87 + 1 X92 + 1 X38
  + 1 X85
  <= 1
 c14:
  + 1 X1 + 1 X11 + 1 X40 + 1 X60 + 1 X55 + 1 X82
  <= 1
 c15:
  + 1 X74 + 1 X66 + 1 X1 + 1 X63 + 1 X32 + 1 X94 + 1 X39 + 1 X81
  + 1 X34 + 1 X29 + 1 X80 + 1 X35 + 1 X89 + 1 X56 + 1 X41 + 1 X95
  + 1 X7 + 1 X42 + 1 X93 + 1 X55
  <= 1
 c16:
  + 1 X68 + 1 X76 + 1 X9 + 1 X57 + 1 X84 + 1 X21 + 1 X34
  <= 1
 c17:
  + 1 X45 + 1 X85 + 1 X86 + 1 X1 + 1 X68 + 1 X40 + 1 X3 + 1 X30
  + 1 X100 + 1 X21 + 1 X75 + 1 X48 + 1 X18 + 1 X65
  <= 1
 c18:
  + 1 X8 + 1 X99
  <= 1
 c19:
  + 1 X92 + 1 X27 + 1 X86
  <= 1
 c20:
  + 1 X46 + 1 X54 + 1 X65 + 1 X73 + 1 X70 + 1 X47 + 1 X40 + 1 X19
  + 1 X8 + 1 X99 + 1 X3 + 1 X95 + 1 X96 + 1 X67
  <= 1
 obj1:
  + 97 X1 + 88 X2 + 36 X3 + 63 X4 + 20 X5 + 22 X6 + 25 X7 + 86 X8
  + 21 X9 + 74 X10 + 86 X11 + 52 X12 + 68 X13 + 49 X14 + 95 X15 + 14 X16
  + 40 X17 + 66 X18 + 50 X19 + 74 X20 + 14 X21 + 11 X22 + 74 X23 + 45 X24
  + 54 X25 + 88 X26 + 97 X27 + 93 X28 + 90 X29 + 8 X30 + 38 X31 + 98 X32
  + 95 X33 + 38 X34 + 79 X35 + 49 X36 + 99 X37 + 90 X38 + 73 X39 + 55 X40
  + 45 X41 + 15 X42 + 83 X43 + 46 X44 + 32 X45 + 85 X46 + 43 X47 + 49 X48
  + 89 X49 + 86 X50 + 65 X51 + 25 X52 + 63 X53 + 81 X54 + 80 X55 + 71 X56
  + 1 X57 + 29 X58 + 18 X59 + 51 X60 + 50 X61 + 30 X62 + 87 X63 + 2 X64
  + 8 X65 + 88 X66 + 73 X67 + 22 X68 + 90 X69 + 30 X70 + 43 X71 + 41 X72
  + 49 X73 + 74 X74 + 73 X75 + 72 X76 + 29 X77 + 28 X78 + 84 X79 + 99 X80
  + 91 X81 + 10 X82 + 59 X83 + 42 X84 + 46 X85 + 62 X86 + 82 X87 + 93 X88
  + 100 X89 + 78 X90 + 80 X91 + 100 X92 + 65 X93 + 96 X94 + 69 X95 + 97 X96
  + 97 X97 + 1 X98 + 16 X99 + 32 X100
  >= 1
 obj2:
  + 12 X1 + 56 X2 + 80 X3 + 3 X4 + 93 X5 + 69 X6 + 44 X7 + 63 X8
  + 69 X9 + 30 X10 + 57 X11 + 36 X12 + 39 X13 + 33 X14 + 31 X15 + 42 X16
  + 7 X17 + 80 X18 + 95 X19 + 40 X20 + 85 X21 + 37 X22 + 28 X23 + 49 X24
  + 3 X25 + 78 X26 + 47 X27 + 43 X28 + 88 X29 + 8 X30 + 40 X31 + 85 X32
  + 33 X33 + 99 X34 + 61 X35 + 98 X36 + 97 X37 + 81 X38 + 44 X39 + 69 X40
  + 70 X41 + 100 X42 + 20 X43 + 26 X44 + 77 X45 + 89 X46 + 62 X47 + 68 X48
  + 71 X49 + 3 X50 + 85 X51 + 8 X52 + 66 X53 + 23 X54 + 7 X55 + 5 X56
  + 58 X57 + 55 X58 + 43 X59 + 17 X60 + 9 X61 + 86 X62 + 93 X63 + 14 X64
  + 86 X65 + 94 X66 + 44 X67 + 23 X68 + 42 X69 + 10 X70 + 73 X71 + 55 X72
  + 71 X73 + 57 X74 + 61 X75 + 50 X76 + 43 X77 + 2 X78 + 46 X79 + 31 X80
  + 94 X81 + 41 X82 + 26 X83 + 9 X84 + 85 X85 + 32 X86 + 84 X87 + 73 X88
  + 58 X89 + 74 X90 + 6 X91 + 96 X92 + 70 X93 + 16 X94 + 87 X95 + 29 X96
  + 92 X97 + 65 X98 + 67 X99 + 27 X100
  >= 2
 obj3:
  + 64 X1 + 63 X2 + 56 X3 + 28 X4 + 58 X5 + 95 X6 + 16 X7 + 20 X8
  + 20 X9 + 83 X10 + 1 X11 + 24 X12 + 66 X13 + 81 X14 + 85 X15 + 36 X16
  + 74 X17 + 65 X18 + 24 X19 + 26 X20 + 47 X21 + 97 X22 + 7 X23 + 33 X24
  + 94 X25 + 15 X26 + 13 X27 + 83 X28 + 53 X29 + 81 X30 + 74 X31 + 46 X32
  + 7 X33 + 94 X34 + 34 X35 + 84 X36 + 70 X37 + 8 X38 + 78 X39 + 45 X40
  + 72 X41 + 69 X42 + 46 X43 + 12 X44 + 56 X45 + 94 X46 + 18 X47 + 89 X48
  + 90 X49 + 88 X50 + 61 X51 + 91 X52 + 80 X53 + 71 X54 + 82 X55 + 76 X56
  + 25 X57 + 64 X58 + 83 X59 + 28 X60 + 84 X61 + 69 X62 + 52 X63 + 94 X64
  + 2 X65 + 98 X66 + 74 X67 + 49 X68 + 56 X69 + 65 X70 + 88 X71 + 12 X72
  + 21 X73 + 33 X74 + 12 X75 + 21 X76 + 64 X77 + 39 X78 + 51 X79 + 58 X80
  + 81 X81 + 44 X82 + 32 X83 + 34 X84 + 7 X85 + 44 X86 + 69 X87 + 79 X88
  + 87 X89 + 25 X90 + 92 X91 + 99 X92 + 2 X93 + 23 X94 + 82 X95 + 60 X96
  + 41 X97 + 91 X98 + 29 X99 + 66 X100
  >= 3
 obj4:
  + 20 X1 + 17 X2 + 23 X3 + 83 X4 + 38 X5 + 84 X6 + 36 X7 + 78 X8
  + 41 X9 + 88 X10 + 39 X11 + 46 X12 + 28 X13 + 41 X14 + 45 X15 + 19 X16
  + 73 X17 + 28 X18 + 95 X19 + 87 X20 + 87 X21 + 36 X22 + 66 X23 + 70 X24
  + 23 X25 + 41 X26 + 29 X27 + 56 X28 + 63 X29 + 71 X30 + 82 X31 + 21 X32
  + 73 X33 + 52 X34 + 15 X35 + 28 X36 + 62 X37 + 39 X38 + 40 X39 + 76 X40
  + 32 X41 + 20 X42 + 1 X43 + 41 X44 + 43 X45 + 89 X46 + 26 X47 + 54 X48
  + 37 X49 + 87 X50 + 61 X51 + 48 X52 + 36 X53 + 89 X54 + 3 X55 + 28 X56
  + 22 X57 + 94 X58 + 12 X59 + 76 X60 + 87 X61 + 97 X62 + 7 X63 + 90 X64
  + 38 X65 + 64 X66 + 73 X67 + 25 X68 + 57 X69 + 1 X70 + 43 X71 + 61 X72
  + 20 X73 + 53 X74 + 60 X75 + 39 X76 + 57 X77 + 49 X78 + 44 X79 + 19 X80
  + 58 X81 + 79 X82 + 95 X83 + 82 X84 + 42 X85 + 42 X86 + 5 X87 + 93 X88
  + 93 X89 + 87 X90 + 4 X91 + 82 X92 + 45 X93 + 53 X94 + 2 X95 + 22 X96
  + 41 X97 + 37 X98 + 32 X99 + 86 X100
  >= 4
Binary
 X1
 X2
 X3
 X4
 X5
 X6
 X7
 X8
 X9
 X10
 X11
 X12
 X13
 X14
 X15
 X16
 X17
 X18
 X19
 X20
 X21
 X22
 X23
 X24
 X25
 X26
 X27
 X28
 X29
 X30
 X31
 X32
 X33
 X34
 X35
 X36
 X37
 X38
 X39
 X40
 X41
 X42
 X43
 X44
 X45
 X46
 X47
 X48
 X49
 X50
 X51
 X52
 X53
 X54
 X55
 X56
 X57
 X58
 X59
 X60
 X61
 X62
 X63
 X64
 X65
 X66
 X67
 X68
 X69
 X70
 X71
 X72
 X73
 X74
 X75
 X76
 X77
 X78
 X79
 X80
 X81
 X82
 X83
 X84
 X85
 X86
 X87
 X88
 X89
 X90
 X91
 X92
 X93
 X94
 X95
 X96
 X97
 X98
 X99
 X100
End
